# Solution for model GasLib-40
# Objective value = 1.0478352698576604e+01
loadshed[innode_1] 0
loadshed[innode_2] 0
loadshed[innode_3] 0
loadshed[innode_4] 0
loadshed[innode_5] 0
loadshed[innode_6] 0
loadshed[innode_7] 0
loadshed[innode_8] 0
loadshed[source_1] -2.3036090931028053e-01
loadshed[source_2] -5.8667450164653356e-02
loadshed[source_3] 3.5530917601753231e-01
loadshed[sink_1] 0
loadshed[sink_2] 0
loadshed[sink_3] 0
loadshed[sink_4] 0
loadshed[sink_5] 0
loadshed[sink_6] 0
loadshed[sink_7] 0
loadshed[sink_8] 0
loadshed[sink_9] 0
loadshed[sink_10] 0
loadshed[sink_11] 0
loadshed[sink_12] 6.4071455991296422e-01
loadshed[sink_13] 0
loadshed[sink_14] 0
loadshed[sink_15] 0
loadshed[sink_16] 0
loadshed[sink_17] 0
loadshed[sink_18] 0
loadshed[sink_19] 0
loadshed[sink_20] 0
loadshed[sink_21] 0
loadshed[sink_22] 0
loadshed[sink_23] 0
loadshed[sink_24] 0
loadshed[sink_25] 0
loadshed[sink_26] 0
loadshed[sink_27] 0
loadshed[sink_28] 0
loadshed[sink_29] 0
flow[source_1,sink_3] 1.9450809791978151e+02
flow[innode_1,sink_16] 1.6354166666666970e+01
flow[innode_6,sink_13] 1.2559815222507455e+01
flow[sink_13,sink_14] -3.7943514441592132e+00
flow[sink_14,sink_10] -2.0148518110825989e+01
flow[sink_25,sink_26] 1.5183437382721058e+02
flow[sink_26,sink_9] 1.3548020716054393e+02
flow[sink_9,sink_18] 1.1912604049387726e+02
flow[sink_26,sink_4] 0
flow[sink_4,sink_20] -5.0291440140879217e+01
flow[sink_18,sink_6] 1.0277187382721058e+02
flow[sink_25,innode_8] -1.6179976458644515e+02
flow[sink_6,sink_7] 5.3709373827210129e+01
flow[sink_6,sink_22] 3.2708333333333641e+01
flow[sink_7,sink_24] 38.5841473014234
flow[sink_22,sink_1] 1.6354166666666970e+01
flow[sink_24,sink_21] 2.2229980634756732e+01
flow[sink_21,sink_12] 5.8758139680900650e+00
flow[sink_7,sink_5] -1.2289401408791463e+00
flow[sink_5,sink_17] -1.7583106807545846e+01
flow[sink_17,sink_4] -3.3937273474212517e+01
flow[sink_17,sink_8] 0
flow[sink_3,sink_23] 16.3541666666697
flow[sink_8,sink_20] -1.6354166666668334e+01
flow[sink_25,sink_20] 8.2999773474214223e+01
flow[sink_25,sink_15] -1.0194836460415388e+02
flow[sink_15,sink_29] -6.5590842126801519e+01
flow[sink_29,sink_28] 1.6354166666667879e+01
flow[sink_29,sink_2] 69.0658558106857
flow[sink_2,sink_15] 5.2711689144019033e+01
flow[sink_29,innode_7] -1.6736503127082176e+02
flow[innode_4,sink_19] 1.0191935144417275e+02
flow[sink_19,innode_3] 3.3774684698534649e+01
flow[innode_4,innode_5] 0
flow[sink_27,innode_5] 0
flow[sink_27,sink_19] -1.6354166666679703e+01
flow[sink_10,sink_11] 3.2708333333333641e+01
flow[sink_10,innode_2] -3.5436333412291731e+01
flow[sink_10,innode_3] -3.3774684698534649e+01
flow[innode_6,sink_25] -1.2559815222507455e+01
flow[sink_11,innode_1] 1.6354166666666970e+01
flow[sink_19,innode_2] 3.5436333412291731e+01
flow[source_3,innode_4] 1.0191935144417275e+02
flow[source_2,innode_7] 1.6736503127082176e+02
flow[sink_3,innode_8] 1.6179976458644515e+02
pressure[innode_1] 7.4859579495715451e+01
pressure[innode_2] 7.6884237381008973e+01
pressure[innode_3] 7.6809447166312211e+01
pressure[innode_4] 81.01325
pressure[innode_5] 7.6533107383865470e+01
pressure[innode_6] 74.120734035403
pressure[innode_7] 81.01325
pressure[innode_8] 8.0363083733440831e+01
pressure[source_1] 81.01325
pressure[source_2] 81.01325
pressure[source_3] 81.01325
pressure[sink_1] 4.6162560355400757e+01
pressure[sink_2] 7.4787374992031673e+01
pressure[sink_3] 8.0363083733440831e+01
pressure[sink_4] 5.0644227931476685e+01
pressure[sink_5] 4.8037442881176709e+01
pressure[sink_6] 4.8263637965788128e+01
pressure[sink_7] 4.7526336286911167e+01
pressure[sink_8] 5.3194186399057457e+01
pressure[sink_9] 5.5318288190787563e+01
pressure[sink_10] 75.011280803319
pressure[sink_11] 7.4859579495715451e+01
pressure[sink_12] 1.0132499999999998e+00
pressure[sink_13] 7.4051493873021428e+01
pressure[sink_14] 7.4058284188138032e+01
pressure[sink_15] 7.4615282944445610e+01
pressure[sink_16] 7.3837929660897771e+01
pressure[sink_17] 4.9347257243992438e+01
pressure[sink_18] 5.1007952989055504e+01
pressure[sink_19] 7.6884237381008973e+01
pressure[sink_20] 5.4333841822645745e+01
pressure[sink_21] 3.10418619439756
pressure[sink_22] 4.7226329497755763e+01
pressure[sink_23] 8.0198365721781045e+01
pressure[sink_24] 3.3503625758122233e+00
pressure[sink_25] 74.120734035403
pressure[sink_26] 6.3427128254135468e+01
pressure[sink_27] 7.6533107383865470e+01
pressure[sink_28] 7.6241608791645064e+01
pressure[sink_29] 7.6536891065262253e+01
interdiction[source_1,sink_3] 0
interdiction[innode_1,sink_16] 0
interdiction[innode_6,sink_13] 0
interdiction[sink_13,sink_14] 0
interdiction[sink_14,sink_10] 0
interdiction[sink_25,sink_26] 0
interdiction[sink_26,sink_9] 0
interdiction[sink_9,sink_18] 0
interdiction[sink_26,sink_4] 1
interdiction[sink_4,sink_20] 0
interdiction[sink_18,sink_6] 0
interdiction[sink_25,innode_8] 0
interdiction[sink_6,sink_7] 0
interdiction[sink_6,sink_22] 0
interdiction[sink_7,sink_24] 0
interdiction[sink_22,sink_1] 0
interdiction[sink_24,sink_21] 0
interdiction[sink_21,sink_12] 0
interdiction[sink_7,sink_5] 0
interdiction[sink_5,sink_17] 0
interdiction[sink_17,sink_4] 0
interdiction[sink_17,sink_8] 1
interdiction[sink_3,sink_23] 0
interdiction[sink_8,sink_20] 0
interdiction[sink_25,sink_20] 0
interdiction[sink_25,sink_15] 0
interdiction[sink_15,sink_29] 0
interdiction[sink_29,sink_28] 0
interdiction[sink_29,sink_2] 0
interdiction[sink_2,sink_15] 0
interdiction[sink_29,innode_7] 0
interdiction[innode_4,sink_19] 0
interdiction[sink_19,innode_3] 0
interdiction[innode_4,innode_5] 1
interdiction[sink_27,innode_5] 0
interdiction[sink_27,sink_19] 0
interdiction[sink_10,sink_11] 0
interdiction[sink_10,innode_2] 0
interdiction[sink_10,innode_3] 0
interdiction[innode_6,sink_25] 0
interdiction[sink_11,innode_1] 0
interdiction[sink_19,innode_2] 0
interdiction[source_3,innode_4] 0
interdiction[source_2,innode_7] 0
interdiction[sink_3,innode_8] 0
WCcheckFlow[source_1,sink_3] 39
WCcheckFlow[innode_1,sink_16] 1
WCcheckFlow[innode_6,sink_13] 13
WCcheckFlow[sink_13,sink_14] 12
WCcheckFlow[sink_14,sink_10] 11
WCcheckFlow[sink_25,sink_26] 15
WCcheckFlow[sink_26,sink_9] 14
WCcheckFlow[sink_9,sink_18] 13
WCcheckFlow[sink_26,sink_4] 0
WCcheckFlow[sink_4,sink_20] 2
WCcheckFlow[sink_18,sink_6] 12
WCcheckFlow[sink_25,innode_8] -36
WCcheckFlow[sink_6,sink_7] 9
WCcheckFlow[sink_6,sink_22] 2
WCcheckFlow[sink_7,sink_24] 3
WCcheckFlow[sink_22,sink_1] 1
WCcheckFlow[sink_24,sink_21] 2
WCcheckFlow[sink_21,sink_12] 1
WCcheckFlow[sink_7,sink_5] 5
WCcheckFlow[sink_5,sink_17] 4
WCcheckFlow[sink_17,sink_4] 3
WCcheckFlow[sink_17,sink_8] 0
WCcheckFlow[sink_3,sink_23] 1
WCcheckFlow[sink_8,sink_20] -1
WCcheckFlow[sink_25,sink_20] 0
WCcheckFlow[sink_25,sink_15] 6
WCcheckFlow[sink_15,sink_29] 5
WCcheckFlow[sink_29,sink_28] 1
WCcheckFlow[sink_29,sink_2] 1
WCcheckFlow[sink_2,sink_15] 0
WCcheckFlow[sink_29,innode_7] 2
WCcheckFlow[innode_4,sink_19] -2
WCcheckFlow[sink_19,innode_3] -5
WCcheckFlow[innode_4,innode_5] 0
WCcheckFlow[sink_27,innode_5] 1
WCcheckFlow[sink_27,sink_19] -2
WCcheckFlow[sink_10,sink_11] 3
WCcheckFlow[sink_10,innode_2] 1
WCcheckFlow[sink_10,innode_3] 6
WCcheckFlow[innode_6,sink_25] -14
WCcheckFlow[sink_11,innode_1] 2
WCcheckFlow[sink_19,innode_2] 0
WCcheckFlow[source_3,innode_4] -1
WCcheckFlow[source_2,innode_7] -1
WCcheckFlow[sink_3,innode_8] 37
